Version identifier: 22.1.0.0 | 2022-03-09 | 1a383f8ce
CPXPARAM_Threads                                 1
CPXPARAM_MIP_Strategy_VariableSelect             3
CPXPARAM_TimeLimit                               594.79499285099996
Tried aggregator 1 time.
MIP Presolve eliminated 26 rows and 0 columns.
MIP Presolve modified 1 coefficients.
Reduced MIP has 2622 rows, 5840 columns, and 75742 nonzeros.
Reduced MIP has 5840 binaries, 0 generals, 0 SOSs, and 0 indicators.
Presolve time = 0.04 sec. (32.02 ticks)
Probing time = 0.01 sec. (3.99 ticks)
Tried aggregator 1 time.
Detecting symmetries...
Reduced MIP has 2622 rows, 5840 columns, and 75742 nonzeros.
Reduced MIP has 5840 binaries, 0 generals, 0 SOSs, and 0 indicators.
Presolve time = 0.05 sec. (40.80 ticks)
Probing time = 0.01 sec. (3.99 ticks)
Clique table members: 871.
MIP emphasis: balance optimality and feasibility.
MIP search method: dynamic search.
Parallel mode: none, using 1 thread.
Root relaxation solution time = 5.00 sec. (4895.57 ticks)

        Nodes                                         Cuts/
   Node  Left     Objective  IInf  Best Integer    Best Bound    ItCnt     Gap

      0     0        0.0000  1364                      0.0000    11556         
      0     2        0.0000   168                      0.0000    11556         
Elapsed time = 21.74 sec. (21968.19 ticks, tree = 0.01 MB, solutions = 0)
      1     3        0.0000  1018                      0.0000    27844         
      2     4        0.0000   178                      0.0000    28617         
      3     5        0.0000   209                      0.0000    29636         
      4     6        0.0000   339                      0.0000    32124         
      6     8        0.0000  1151                      0.0000    45403         
      7     9        0.0000   182                      0.0000    47157         
      8    10        0.0000   177                      0.0000    47202         
      9    11        0.0000   556                      0.0000    54552         
     10    12        0.0000   169                      0.0000    54567         
     11    13        0.0000   956                      0.0000    65054         
Elapsed time = 44.00 sec. (43453.18 ticks, tree = 0.07 MB, solutions = 0)
     13    15        0.0000  1103                      0.0000    78187         
     15    17        0.0000   708                      0.0000    87667         
     16    18        0.0000   487                      0.0000    93993         
     18    20        0.0000   808                      0.0000   100900         
     20    22        0.0000   507                      0.0000   101371         
     23    25        0.0000   487                      0.0000   102098         
     26    28        0.0000   482                      0.0000   103755         
     30    32        0.0000   525                      0.0000   106056         
     34    36        0.0000   465                      0.0000   107046         
     37    39        0.0000   400                      0.0000   108654         
Elapsed time = 75.14 sec. (72839.38 ticks, tree = 0.53 MB, solutions = 0)
     42    44        0.0000   403                      0.0000   109998         
     46    48        0.0000   413                      0.0000   111016         
     50    52        0.0000   402                      0.0000   112730         
     54    56        0.0000   394                      0.0000   114679         
     58    60        0.0000   390                      0.0000   115951         
     63    65        0.0000   387                      0.0000   117185         
     67    69        0.0000   351                      0.0000   119834         
     71    73        0.0000   360                      0.0000   121403         
     75    77        0.0000   352                      0.0000   124251         
     78    80        0.0000   308                      0.0000   127346         
Elapsed time = 86.71 sec. (84094.54 ticks, tree = 1.46 MB, solutions = 0)
     82    84        0.0000   305                      0.0000   129464         
     86    88        0.0000   299                      0.0000   131494         
     91    93        0.0000   296                      0.0000   133291         
     95    97        0.0000   280                      0.0000   136445         
     99   101        0.0000   356                      0.0000   140069         
    102   104        0.0000   263                      0.0000   141176         
    106   108        0.0000   254                      0.0000   145287         
    109   111        0.0000   339                      0.0000   149232         
    113   115        0.0000   253                      0.0000   150101         
    117   119        0.0000   235                      0.0000   153698         
Elapsed time = 98.89 sec. (95662.72 ticks, tree = 2.34 MB, solutions = 0)
    120   122        0.0000   366                      0.0000   159236         
    124   126        0.0000   228                      0.0000   162305         
    128   130        0.0000   228                      0.0000   165161         
    132   134        0.0000   235                      0.0000   166716         
    136   138        0.0000   232                      0.0000   169530         
    139   141        0.0000   232                      0.0000   174154         
    143   145        0.0000   239                      0.0000   175663         
    146   148        0.0000   247                      0.0000   179813         
    150   152        0.0000   237                      0.0000   181959         
    154   156        0.0000   283                      0.0000   188148         
Elapsed time = 111.39 sec. (107295.98 ticks, tree = 3.16 MB, solutions = 0)
    159   161        0.0000   175                      0.0000   191954         
    163   165        0.0000   174                      0.0000   195316         
    168   170        0.0000   160                      0.0000   197783         
    173   175        0.0000   167                      0.0000   201441         
    178   180        0.0000   143                      0.0000   203907         
    182   184        0.0000   124                      0.0000   205548         
    188   190        0.0000   119                      0.0000   206477         
    193   195        0.0000   119                      0.0000   206995         
    198   200        0.0000   116                      0.0000   210093         
    203   205        0.0000    58                      0.0000   211791         
Elapsed time = 123.36 sec. (118271.90 ticks, tree = 4.30 MB, solutions = 0)
    205   207        0.0000    28                      0.0000   216855         
    207   209        0.0000    28                      0.0000   221469         
    210   212        0.0000   131                      0.0000   224916         
    213   215        0.0000   113                      0.0000   229099         
    215   217        0.0000    32                      0.0000   232947         
    217   219        0.0000    38                      0.0000   235885         
    220   222        0.0000   214                      0.0000   238686         
    222   224        0.0000    34                      0.0000   243206         
    225   227        0.0000   128                      0.0000   247468         
    227   229        0.0000   192                      0.0000   250347         
Elapsed time = 135.67 sec. (130187.44 ticks, tree = 4.83 MB, solutions = 0)
    230   232        0.0000   208                      0.0000   254886         
    233   235        0.0000   136                      0.0000   258643         
    237   239        0.0000   211                      0.0000   265026         
    241   243        0.0000   309                      0.0000   272447         
    243   245        0.0000   319                      0.0000   279000         
    247   249        0.0000   354                      0.0000   287145         
    252   254        0.0000   159                      0.0000   289395         
    256   258        0.0000   184                      0.0000   292608         
    260   262        0.0000   151                      0.0000   302151         
    265   267        0.0000   131                      0.0000   304538         
Elapsed time = 149.55 sec. (142543.55 ticks, tree = 5.73 MB, solutions = 0)
    270   272        0.0000    70                      0.0000   309359         
    275   275        0.0000    68                      0.0000   314651         
    279   279        0.0000    68                      0.0000   317409         
    283   283        0.0000    81                      0.0000   322536         
    285   283    infeasible                            0.0000   328904         
    289   287        0.0000   102                      0.0000   335807         
    293   291        0.0000    94                      0.0000   338484         
    297   295        0.0000    72                      0.0000   343756         
    301   299        0.0000    85                      0.0000   347611         
    305   303        0.0000    81                      0.0000   352338         
Elapsed time = 162.36 sec. (153827.34 ticks, tree = 6.55 MB, solutions = 0)
    310   308        0.0000    76                      0.0000   355946         
    316   314        0.0000    74                      0.0000   358543         
    320   318        0.0000    76                      0.0000   362747         
    324   322        0.0000    99                      0.0000   368198         
    327   325        0.0000    95                      0.0000   373720         
    331   329        0.0000    60                      0.0000   377074         
    335   333        0.0000    71                      0.0000   382829         
    338   336        0.0000   103                      0.0000   388404         
    343   341        0.0000    48                      0.0000   391251         
    357   355        0.0000    81                      0.0000   411963         
Elapsed time = 178.31 sec. (167638.92 ticks, tree = 7.74 MB, solutions = 0)
    371   361        0.0000    40                      0.0000   430037         
    385   375        0.0000    37                      0.0000   437866         
    401   391        0.0000    31                      0.0000   448840         
    411   401        0.0000   249                      0.0000   467235         
    425   415        0.0000   185                      0.0000   487227         
    441   431        0.0000    61                      0.0000   503389         
    457   447        0.0000   190                      0.0000   524036         
    469   457        0.0000   287                      0.0000   546133         
    479   465    infeasible                            0.0000   570754         
    496   472        0.0000    21                      0.0000   593170         
Elapsed time = 224.49 sec. (208924.70 ticks, tree = 10.42 MB, solutions = 0)
*   497     1      integral     0        0.0000        0.0000   593334    0.00%

Root node processing (before b&c):
  Real time             =   21.71 sec. (21937.91 ticks)
Sequential b&c:
  Real time             =  202.81 sec. (187014.97 ticks)
                          ------------
Total (root+branch&cut) =  224.52 sec. (208952.87 ticks)
Version identifier: 22.1.0.0 | 2022-03-09 | 1a383f8ce
CPXPARAM_Threads                                 1
CPXPARAM_MIP_Strategy_VariableSelect             3
CPXPARAM_TimeLimit                               370.237472889
Tried aggregator 1 time.
MIP Presolve eliminated 26 rows and 0 columns.
MIP Presolve modified 1 coefficients.
Reduced MIP has 2658 rows, 5920 columns, and 76790 nonzeros.
Reduced MIP has 5920 binaries, 0 generals, 0 SOSs, and 0 indicators.
Presolve time = 0.04 sec. (32.46 ticks)
Probing time = 0.01 sec. (4.01 ticks)
Tried aggregator 1 time.
Detecting symmetries...
Reduced MIP has 2658 rows, 5920 columns, and 76790 nonzeros.
Reduced MIP has 5920 binaries, 0 generals, 0 SOSs, and 0 indicators.
Presolve time = 0.05 sec. (41.37 ticks)
Probing time = 0.01 sec. (4.01 ticks)
Clique table members: 883.
MIP emphasis: balance optimality and feasibility.
MIP search method: dynamic search.
Parallel mode: none, using 1 thread.
Root relaxation solution time = 4.76 sec. (4707.75 ticks)

        Nodes                                         Cuts/
   Node  Left     Objective  IInf  Best Integer    Best Bound    ItCnt     Gap

      0     0        0.0000  1360                      0.0000    10928         
*     0+    0                            0.0000        0.0000             0.00%
      0     0        cutoff              0.0000        0.0000    10928    0.00%
Elapsed time = 13.46 sec. (13467.47 ticks, tree = 0.01 MB, solutions = 1)

Root node processing (before b&c):
  Real time             =   13.46 sec. (13467.65 ticks)
Sequential b&c:
  Real time             =    0.00 sec. (0.00 ticks)
                          ------------
Total (root+branch&cut) =   13.46 sec. (13467.65 ticks)
Version identifier: 22.1.0.0 | 2022-03-09 | 1a383f8ce
CPXPARAM_Threads                                 1
CPXPARAM_MIP_Strategy_VariableSelect             3
CPXPARAM_TimeLimit                               356.74228789200004
Tried aggregator 1 time.
MIP Presolve eliminated 26 rows and 0 columns.
MIP Presolve modified 1 coefficients.
Reduced MIP has 2676 rows, 5960 columns, and 77314 nonzeros.
Reduced MIP has 5960 binaries, 0 generals, 0 SOSs, and 0 indicators.
Presolve time = 0.04 sec. (32.67 ticks)
Probing time = 0.01 sec. (4.01 ticks)
Tried aggregator 1 time.
Detecting symmetries...
Reduced MIP has 2676 rows, 5960 columns, and 77314 nonzeros.
Reduced MIP has 5960 binaries, 0 generals, 0 SOSs, and 0 indicators.
Presolve time = 0.05 sec. (41.64 ticks)
Probing time = 0.01 sec. (4.01 ticks)
Clique table members: 889.
MIP emphasis: balance optimality and feasibility.
MIP search method: dynamic search.
Parallel mode: none, using 1 thread.
Root relaxation solution time = 4.44 sec. (4432.32 ticks)

        Nodes                                         Cuts/
   Node  Left     Objective  IInf  Best Integer    Best Bound    ItCnt     Gap

      0     0        0.0000  1390                      0.0000    10202         
      0     0        0.0000   268                 ZeroHalf: 1    10508         
      0     0        0.0000   456                    Cuts: 58    16814         
      0     0        0.0000   123                 ZeroHalf: 1    17044         
      0     0        0.0000   610                    Cuts: 27    19982         
*     0+    0                            0.0000        0.0000             0.00%
      0     0        cutoff              0.0000        0.0000    19982    0.00%
Elapsed time = 59.80 sec. (64864.94 ticks, tree = 0.01 MB, solutions = 1)

Clique cuts applied:  2
Zero-half cuts applied:  10
Lift and project cuts applied:  1
Gomory fractional cuts applied:  1

Root node processing (before b&c):
  Real time             =   59.80 sec. (64865.12 ticks)
Sequential b&c:
  Real time             =    0.00 sec. (0.00 ticks)
                          ------------
Total (root+branch&cut) =   59.80 sec. (64865.12 ticks)
Version identifier: 22.1.0.0 | 2022-03-09 | 1a383f8ce
CPXPARAM_Threads                                 1
CPXPARAM_MIP_Strategy_VariableSelect             3
CPXPARAM_TimeLimit                               296.89952512800005
Tried aggregator 1 time.
MIP Presolve eliminated 26 rows and 0 columns.
MIP Presolve modified 1 coefficients.
Reduced MIP has 2685 rows, 5980 columns, and 77576 nonzeros.
Reduced MIP has 5980 binaries, 0 generals, 0 SOSs, and 0 indicators.
Presolve time = 0.04 sec. (32.78 ticks)
Probing time = 0.01 sec. (4.03 ticks)
Tried aggregator 1 time.
Detecting symmetries...
Reduced MIP has 2685 rows, 5980 columns, and 77576 nonzeros.
Reduced MIP has 5980 binaries, 0 generals, 0 SOSs, and 0 indicators.
Presolve time = 0.05 sec. (41.78 ticks)
Probing time = 0.01 sec. (4.03 ticks)
Clique table members: 892.
MIP emphasis: balance optimality and feasibility.
MIP search method: dynamic search.
Parallel mode: none, using 1 thread.
Root relaxation solution time = 4.97 sec. (4901.45 ticks)

        Nodes                                         Cuts/
   Node  Left     Objective  IInf  Best Integer    Best Bound    ItCnt     Gap

      0     0        0.0000  1426                      0.0000    11030         
      0     2        0.0000   177                      0.0000    11030         
Elapsed time = 23.88 sec. (24485.00 ticks, tree = 0.01 MB, solutions = 0)
      1     3        0.0000  1082                      0.0000    29844         
      2     4        0.0000   858                      0.0000    37953         
      3     5        0.0000  1163                      0.0000    49084         
      4     6        0.0000   864                      0.0000    56744         
      5     7        0.0000   939                      0.0000    58877         
      6     8        0.0000   875                      0.0000    59031         
      7     9        0.0000  1397                      0.0000    61987         
      8    10        0.0000   901                      0.0000    62091         
      9    11        0.0000  1119                      0.0000    63642         
     12    14        0.0000   903                      0.0000    64852         
Elapsed time = 49.15 sec. (49503.15 ticks, tree = 0.03 MB, solutions = 0)
     14    16        0.0000   904                      0.0000    65758         
     17    19        0.0000  1031                      0.0000    69405         
     20    22        0.0000  1020                      0.0000    71776         
     23    25        0.0000   988                      0.0000    72795         
     26    28        0.0000  1019                      0.0000    74276         
     30    32        0.0000   975                      0.0000    75563         
     33    35        0.0000   972                      0.0000    77203         
     36    38        0.0000   988                      0.0000    79767         
     39    41        0.0000   967                      0.0000    80537         
     40    42        0.0000  1043                      0.0000    82085         
Elapsed time = 66.81 sec. (67415.27 ticks, tree = 0.09 MB, solutions = 0)
     44    46        0.0000   964                      0.0000    83661         
     47    49        0.0000  1025                      0.0000    85735         
     50    52        0.0000   966                      0.0000    86835         
     53    55        0.0000   911                      0.0000    90480         
     56    58        0.0000   926                      0.0000    92050         
     59    61        0.0000  1255                      0.0000    95202         
     63    65        0.0000  1030                      0.0000    97727         
     66    68        0.0000  1113                      0.0000   101634         
     69    71        0.0000  1091                      0.0000   102873         
     72    74        0.0000  1095                      0.0000   104470         
Elapsed time = 83.75 sec. (84318.67 ticks, tree = 0.17 MB, solutions = 0)
     76    78        0.0000  1091                      0.0000   106077         
     80    82        0.0000  1079                      0.0000   107553         
     84    86        0.0000  1068                      0.0000   109749         
     87    89        0.0000  1032                      0.0000   112153         
     90    92        0.0000  1039                      0.0000   113902         
     93    95        0.0000  1040                      0.0000   115664         
     96    98        0.0000  1018                      0.0000   118068         
     99   101        0.0000   948                      0.0000   120941         
    102   104        0.0000   973                      0.0000   125976         
    105   107        0.0000   936                      0.0000   128738         
Elapsed time = 108.08 sec. (108090.24 ticks, tree = 0.26 MB, solutions = 0)
    107   109        0.0000   764                      0.0000   132942         
    110   112        0.0000   763                      0.0000   136380         
    113   115        0.0000   742                      0.0000   143639         
    116   118        0.0000   739                      0.0000   149637         
    119   121        0.0000   729                      0.0000   153525         
    123   123        0.0000   728                      0.0000   159781         
    126   126        0.0000   690                      0.0000   164426         
    129   129        0.0000   674                      0.0000   168181         
    132   132        0.0000   626                      0.0000   172918         
    135   135        0.0000   599                      0.0000   177307         
Elapsed time = 121.08 sec. (120277.61 ticks, tree = 0.34 MB, solutions = 0)
    137   137        0.0000   741                      0.0000   189041         
    141   141        0.0000   548                      0.0000   190269         
    145   145        0.0000   445                      0.0000   196548         
    147   145        0.0000   445                      0.0000   207112         
    150   144    infeasible                            0.0000   213257         
    153   145        0.0000   468                      0.0000   221361         
    156   144    infeasible                            0.0000   232273         
    160   144    infeasible                            0.0000   240194         
    163   145        0.0000   449                      0.0000   250623         
    167   143    infeasible                            0.0000   260071         
Elapsed time = 135.78 sec. (133987.10 ticks, tree = 0.36 MB, solutions = 0)
    171   144        0.0000   457                      0.0000   267455         
    176   145        0.0000   491                      0.0000   271239         
    180   149        0.0000   362                      0.0000   273668         
    185   154        0.0000   321                      0.0000   275462         
    190   157        0.0000   291                      0.0000   278168         
    195   162        0.0000   221                      0.0000   281216         
    199   164        0.0000   215                      0.0000   284993         
    206   171        0.0000   178                      0.0000   286635         
    209   172    infeasible                            0.0000   292258         
    212   173    infeasible                            0.0000   297220         
Elapsed time = 146.99 sec. (144721.23 ticks, tree = 0.45 MB, solutions = 0)
    216   173    infeasible                            0.0000   305742         
    219   174    infeasible                            0.0000   311081         
    223   176        0.0000   147                      0.0000   317673         
    224   175    infeasible                            0.0000   320767         
    227   176        0.0000   136                      0.0000   326907         
    230   177        0.0000   196                      0.0000   334493         
    234   179        0.0000   173                      0.0000   340443         
    238   181        0.0000   217                      0.0000   344116         
    243   184    infeasible                            0.0000   348696         
    249   184    infeasible                            0.0000   356332         
Elapsed time = 159.05 sec. (156310.58 ticks, tree = 0.48 MB, solutions = 0)
    254   185        0.0000   196                      0.0000   361578         
    259   188    infeasible                            0.0000   366792         
    265   188    infeasible                            0.0000   371992         
    268   189        0.0000   151                      0.0000   378409         
    272   191    infeasible                            0.0000   386668         
    275   192        0.0000   145                      0.0000   394223         
    278   191    infeasible                            0.0000   403961         
    280   191    infeasible                            0.0000   421533         
    287   192    infeasible                            0.0000   424207         
    293   195        0.0000   118                      0.0000   427027         
Elapsed time = 170.80 sec. (166733.97 ticks, tree = 0.51 MB, solutions = 0)
    300   200        0.0000   119                      0.0000   429085         
    306   200    infeasible                            0.0000   432221         
    314   200        0.0000   118                      0.0000   435656         
    322   198    infeasible                            0.0000   439107         
    329   201        0.0000   127                      0.0000   441594         
    340   202        0.0000    96                      0.0000   443512         
    346   205        0.0000    90                      0.0000   447327         
    354   205        0.0000    90                      0.0000   450539         
    360   204        0.0000   118                      0.0000   452777         
    380   208        0.0000    90                      0.0000   466647         
Elapsed time = 185.08 sec. (180873.36 ticks, tree = 0.54 MB, solutions = 0)
    408   210        0.0000   112                      0.0000   478274         
    425   211        0.0000   104                      0.0000   489667         
    446   213        0.0000   112                      0.0000   502619         
    471   206        0.0000   100                      0.0000   517084         
    493   206    infeasible                            0.0000   529135         
    517   214        0.0000   100                      0.0000   539956         
    540   209    infeasible                            0.0000   553942         
    566   212        0.0000    90                      0.0000   565687         
    581   212    infeasible                            0.0000   577085         
    603   208    infeasible                            0.0000   589505         
Elapsed time = 224.55 sec. (220203.31 ticks, tree = 0.55 MB, solutions = 0)
    630   212    infeasible                            0.0000   597759         
    648   220        0.0000    88                      0.0000   604643         
    667   224        0.0000    90                      0.0000   616245         
    684   221        0.0000    94                      0.0000   628830         
    702   221    infeasible                            0.0000   643143         
    720   218        0.0000   106                      0.0000   655177         
    738   218    infeasible                            0.0000   667854         
    759   222    infeasible                            0.0000   679877         
    782   220        0.0000   117                      0.0000   692069         
    803   222    infeasible                            0.0000   705928         
Elapsed time = 265.06 sec. (259860.49 ticks, tree = 0.58 MB, solutions = 0)
    830   219    infeasible                            0.0000   719671         
    852   220        0.0000   122                      0.0000   730921         
    873   222    infeasible                            0.0000   743291         
    892   221        0.0000    88                      0.0000   752808         
    920   222        0.0000   116                      0.0000   763485         
    948   222        0.0000    98                      0.0000   776004         
    981   220        0.0000   131                      0.0000   787725         

Root node processing (before b&c):
  Real time             =   23.85 sec. (24453.95 ticks)
Sequential b&c:
  Real time             =  273.05 sec. (266686.16 ticks)
                          ------------
Total (root+branch&cut) =  296.90 sec. (291140.11 ticks)
Primal:	298
Dual:	298
Status:	Optimal
Time:	594.836
Sequence:
	16
	11
	5
	12
	4
	2
	11
	6
	12
	7
	17
	13
	6
	10
	19
	16
	9
	14
	19
	10
	8
	18
	1
	13
	15
	4
	11
	10
	4
	12
	3
	7
	12
	4
	3
	12
	13
	15
	3
	18
	15
	18
	1
	16
	18
	12
	19
	14
	16
	18
	15
	3
	14
	8
	9
	3
	10
	6
	8
	3
	7
	12
	6
	11
	16
	18
	12
	3
	7
	12
	4
	12
	3
	7
	12
	18
	15
	3
	9
	16
	6
	11
	15
	4
	0
	11
	14
	12
	4
	11
	16
	5
	12
	3
	7
	8
	6
	19
	2
	5
	9
	1
	2
	4
	15
	11
	14
	0
	9
	1
	2
	6
	18
	3
	15
	8
	6
	19
	13
	2
	5
	12
	7
	3
	8
	6
	10
	18
	19
	16
	14
	0
	6
	11
	2
	5
	8
	1
	18
	2
	6
	19
	10
	13
	9
	12
	19
	16
	18
	14
	15
	11
	0
	7
	6
	1
	0
	2
	18
	1
	5
	8
	2
	19
	6
	14
	7
	17
	0
	14
	6
	11
	8
	2
	5
	1
	9
	2
	0
	1
	5
	7
	8
	17
	14
	7
	5
	17
	16
	14
	9
	19
	0
	10
	14
	19
	9
	8
	10
	3
	6
	18
	2
	1
	8
	18
	14
	17
	6
	0
	7
	1
	18
	15
	2
	3
	6
	9
	10
	16
	19
	6
	13
	10
	19
	8
	14
	7
	17
	6
	0
	7
	1
	8
	5
	2
	19
	13
	12
	6
	13
	17
	18
	12
	13
	1
	0
	4
	10
	3
	4
	15
	18
	1
	18
	16
	15
	11
	4
	14
	0
	1
	0
	7
	6
	11
	15
	13
	0
	1
	4
	15
	13
	17
	7
	6
	12
	19
	2
	18
	14
	17
	14
	0
	9
	3
	15
	14
	8
	19
	18
	12
	14
	17
	4
	7
	12
	1
